c File: flat50_3_0.col
c
c SOURCE: Joseph Culberson (joe@cs.ualberta.ca)
c DESCRIPTION: Quasi-random coloring problem
c              generated with flatness = 0
c                             probability = 0.139
c                             known coloring = 3
c                             random seed = 1204
c              Creation Date:  Tue Jun  9 12:03:40 1998
c Maximum degree = 8 Minimum degree = 1
c p edge 50 115
c cnf created by edge2cnf
p cnf 150 545
-1 -2 0
-1 -3 0
-2 -3 0
1 2 3 0
-4 -5 0
-4 -6 0
-5 -6 0
4 5 6 0
-7 -8 0
-7 -9 0
-8 -9 0
7 8 9 0
-10 -11 0
-10 -12 0
-11 -12 0
10 11 12 0
-13 -14 0
-13 -15 0
-14 -15 0
13 14 15 0
-16 -17 0
-16 -18 0
-17 -18 0
16 17 18 0
-19 -20 0
-19 -21 0
-20 -21 0
19 20 21 0
-22 -23 0
-22 -24 0
-23 -24 0
22 23 24 0
-25 -26 0
-25 -27 0
-26 -27 0
25 26 27 0
-28 -29 0
-28 -30 0
-29 -30 0
28 29 30 0
-31 -32 0
-31 -33 0
-32 -33 0
31 32 33 0
-34 -35 0
-34 -36 0
-35 -36 0
34 35 36 0
-37 -38 0
-37 -39 0
-38 -39 0
37 38 39 0
-40 -41 0
-40 -42 0
-41 -42 0
40 41 42 0
-43 -44 0
-43 -45 0
-44 -45 0
43 44 45 0
-46 -47 0
-46 -48 0
-47 -48 0
46 47 48 0
-49 -50 0
-49 -51 0
-50 -51 0
49 50 51 0
-52 -53 0
-52 -54 0
-53 -54 0
52 53 54 0
-55 -56 0
-55 -57 0
-56 -57 0
55 56 57 0
-58 -59 0
-58 -60 0
-59 -60 0
58 59 60 0
-61 -62 0
-61 -63 0
-62 -63 0
61 62 63 0
-64 -65 0
-64 -66 0
-65 -66 0
64 65 66 0
-67 -68 0
-67 -69 0
-68 -69 0
67 68 69 0
-70 -71 0
-70 -72 0
-71 -72 0
70 71 72 0
-73 -74 0
-73 -75 0
-74 -75 0
73 74 75 0
-76 -77 0
-76 -78 0
-77 -78 0
76 77 78 0
-79 -80 0
-79 -81 0
-80 -81 0
79 80 81 0
-82 -83 0
-82 -84 0
-83 -84 0
82 83 84 0
-85 -86 0
-85 -87 0
-86 -87 0
85 86 87 0
-88 -89 0
-88 -90 0
-89 -90 0
88 89 90 0
-91 -92 0
-91 -93 0
-92 -93 0
91 92 93 0
-94 -95 0
-94 -96 0
-95 -96 0
94 95 96 0
-97 -98 0
-97 -99 0
-98 -99 0
97 98 99 0
-100 -101 0
-100 -102 0
-101 -102 0
100 101 102 0
-103 -104 0
-103 -105 0
-104 -105 0
103 104 105 0
-106 -107 0
-106 -108 0
-107 -108 0
106 107 108 0
-109 -110 0
-109 -111 0
-110 -111 0
109 110 111 0
-112 -113 0
-112 -114 0
-113 -114 0
112 113 114 0
-115 -116 0
-115 -117 0
-116 -117 0
115 116 117 0
-118 -119 0
-118 -120 0
-119 -120 0
118 119 120 0
-121 -122 0
-121 -123 0
-122 -123 0
121 122 123 0
-124 -125 0
-124 -126 0
-125 -126 0
124 125 126 0
-127 -128 0
-127 -129 0
-128 -129 0
127 128 129 0
-130 -131 0
-130 -132 0
-131 -132 0
130 131 132 0
-133 -134 0
-133 -135 0
-134 -135 0
133 134 135 0
-136 -137 0
-136 -138 0
-137 -138 0
136 137 138 0
-139 -140 0
-139 -141 0
-140 -141 0
139 140 141 0
-142 -143 0
-142 -144 0
-143 -144 0
142 143 144 0
-145 -146 0
-145 -147 0
-146 -147 0
145 146 147 0
-148 -149 0
-148 -150 0
-149 -150 0
148 149 150 0
-85 -1 0
-86 -2 0
-87 -3 0
-91 -1 0
-92 -2 0
-93 -3 0
-112 -1 0
-113 -2 0
-114 -3 0
-115 -1 0
-116 -2 0
-117 -3 0
-127 -1 0
-128 -2 0
-129 -3 0
-145 -1 0
-146 -2 0
-147 -3 0
-85 -4 0
-86 -5 0
-87 -6 0
-145 -4 0
-146 -5 0
-147 -6 0
-103 -7 0
-104 -8 0
-105 -9 0
-142 -7 0
-143 -8 0
-144 -9 0
-148 -7 0
-149 -8 0
-150 -9 0
-67 -10 0
-68 -11 0
-69 -12 0
-79 -10 0
-80 -11 0
-81 -12 0
-97 -10 0
-98 -11 0
-99 -12 0
-106 -10 0
-107 -11 0
-108 -12 0
-115 -10 0
-116 -11 0
-117 -12 0
-130 -10 0
-131 -11 0
-132 -12 0
-136 -10 0
-137 -11 0
-138 -12 0
-73 -13 0
-74 -14 0
-75 -15 0
-109 -13 0
-110 -14 0
-111 -15 0
-118 -13 0
-119 -14 0
-120 -15 0
-58 -16 0
-59 -17 0
-60 -18 0
-70 -16 0
-71 -17 0
-72 -18 0
-112 -16 0
-113 -17 0
-114 -18 0
-145 -16 0
-146 -17 0
-147 -18 0
-58 -19 0
-59 -20 0
-60 -21 0
-61 -19 0
-62 -20 0
-63 -21 0
-94 -19 0
-95 -20 0
-96 -21 0
-112 -19 0
-113 -20 0
-114 -21 0
-118 -19 0
-119 -20 0
-120 -21 0
-130 -19 0
-131 -20 0
-132 -21 0
-133 -19 0
-134 -20 0
-135 -21 0
-52 -22 0
-53 -23 0
-54 -24 0
-67 -22 0
-68 -23 0
-69 -24 0
-115 -22 0
-116 -23 0
-117 -24 0
-136 -22 0
-137 -23 0
-138 -24 0
-52 -25 0
-53 -26 0
-54 -27 0
-76 -25 0
-77 -26 0
-78 -27 0
-94 -25 0
-95 -26 0
-96 -27 0
-97 -25 0
-98 -26 0
-99 -27 0
-124 -25 0
-125 -26 0
-126 -27 0
-133 -25 0
-134 -26 0
-135 -27 0
-145 -25 0
-146 -26 0
-147 -27 0
-64 -28 0
-65 -29 0
-66 -30 0
-70 -28 0
-71 -29 0
-72 -30 0
-76 -28 0
-77 -29 0
-78 -30 0
-88 -28 0
-89 -29 0
-90 -30 0
-127 -28 0
-128 -29 0
-129 -30 0
-61 -31 0
-62 -32 0
-63 -33 0
-88 -31 0
-89 -32 0
-90 -33 0
-148 -31 0
-149 -32 0
-150 -33 0
-73 -34 0
-74 -35 0
-75 -36 0
-88 -34 0
-89 -35 0
-90 -36 0
-130 -34 0
-131 -35 0
-132 -36 0
-148 -34 0
-149 -35 0
-150 -36 0
-88 -37 0
-89 -38 0
-90 -39 0
-91 -37 0
-92 -38 0
-93 -39 0
-100 -37 0
-101 -38 0
-102 -39 0
-121 -37 0
-122 -38 0
-123 -39 0
-130 -37 0
-131 -38 0
-132 -39 0
-133 -37 0
-134 -38 0
-135 -39 0
-52 -40 0
-53 -41 0
-54 -42 0
-73 -40 0
-74 -41 0
-75 -42 0
-76 -40 0
-77 -41 0
-78 -42 0
-91 -40 0
-92 -41 0
-93 -42 0
-106 -40 0
-107 -41 0
-108 -42 0
-112 -40 0
-113 -41 0
-114 -42 0
-115 -40 0
-116 -41 0
-117 -42 0
-52 -43 0
-53 -44 0
-54 -45 0
-73 -43 0
-74 -44 0
-75 -45 0
-79 -43 0
-80 -44 0
-81 -45 0
-97 -43 0
-98 -44 0
-99 -45 0
-70 -46 0
-71 -47 0
-72 -48 0
-91 -46 0
-92 -47 0
-93 -48 0
-94 -46 0
-95 -47 0
-96 -48 0
-121 -49 0
-122 -50 0
-123 -51 0
-133 -49 0
-134 -50 0
-135 -51 0
-106 -52 0
-107 -53 0
-108 -54 0
-112 -52 0
-113 -53 0
-114 -54 0
-127 -52 0
-128 -53 0
-129 -54 0
-139 -55 0
-140 -56 0
-141 -57 0
-115 -58 0
-116 -59 0
-117 -60 0
-136 -58 0
-137 -59 0
-138 -60 0
-130 -61 0
-131 -62 0
-132 -63 0
-136 -61 0
-137 -62 0
-138 -63 0
-112 -64 0
-113 -65 0
-114 -66 0
-121 -64 0
-122 -65 0
-123 -66 0
-112 -67 0
-113 -68 0
-114 -69 0
-118 -67 0
-119 -68 0
-120 -69 0
-145 -67 0
-146 -68 0
-147 -69 0
-115 -70 0
-116 -71 0
-117 -72 0
-109 -73 0
-110 -74 0
-111 -75 0
-121 -73 0
-122 -74 0
-123 -75 0
-127 -73 0
-128 -74 0
-129 -75 0
-130 -73 0
-131 -74 0
-132 -75 0
-139 -76 0
-140 -77 0
-141 -78 0
-148 -76 0
-149 -77 0
-150 -78 0
-133 -79 0
-134 -80 0
-135 -81 0
-106 -82 0
-107 -83 0
-108 -84 0
-118 -82 0
-119 -83 0
-120 -84 0
-127 -82 0
-128 -83 0
-129 -84 0
-145 -82 0
-146 -83 0
-147 -84 0
-115 -85 0
-116 -86 0
-117 -87 0
-118 -85 0
-119 -86 0
-120 -87 0
-121 -88 0
-122 -89 0
-123 -90 0
-148 -88 0
-149 -89 0
-150 -90 0
-121 -91 0
-122 -92 0
-123 -93 0
-139 -91 0
-140 -92 0
-141 -93 0
-148 -91 0
-149 -92 0
-150 -93 0
-118 -94 0
-119 -95 0
-120 -96 0
-127 -94 0
-128 -95 0
-129 -96 0
-106 -97 0
-107 -98 0
-108 -99 0
-115 -97 0
-116 -98 0
-117 -99 0
-106 -100 0
-107 -101 0
-108 -102 0
-112 -100 0
-113 -101 0
-114 -102 0
